SPARKNaCl/why3-cvc5/sparknacl-stream.adb_279_7_precondition2_1.smt2
;; produced by cvc5.drv ;;
(set-logic ALL)
(set-info :smt-lib-version 2.6)
;;; generated by SMT-LIB2 driver
;;; SMT-LIB2 driver: bit-vectors, common part
;;; SMT-LIB2: integer arithmetic
;; "pow2"
(declare-fun pow2 (Int) Int)

(declare-const two_power_size_minus_one Int)

;; "two_power_size_minus_one_val"
(assert (= two_power_size_minus_one (pow2 (- 8 1))))

;; "min"
(define-fun min ((x Int) (y Int)) Int
  (ite (<= x y) x y))

;; "max"
(define-fun max ((x Int) (y Int)) Int
  (ite (<= x y) y x))

;; "Min_r"
(assert (forall ((x Int) (y Int)) (=> (<= y x) (= (min x y) y))))

;; "Max_l"
(assert (forall ((x Int) (y Int)) (=> (<= y x) (= (max x y) x))))

;; "Min_comm"
(assert (forall ((x Int) (y Int)) (= (min x y) (min y x))))

;; "Max_comm"
(assert (forall ((x Int) (y Int)) (= (max x y) (max y x))))

;; "Min_assoc"
(assert
  (forall ((x Int) (y Int) (z Int)) (= (min (min x y) z) (min x (min y z)))))

;; "Max_assoc"
(assert
  (forall ((x Int) (y Int) (z Int)) (= (max (max x y) z) (max x (max y z)))))

(declare-sort tinteger_32B 0)

;; "tinteger_32B'int"
(declare-fun tinteger_32Bqtint (tinteger_32B) Int)

;; "tinteger_32B'axiom"
(assert
  (forall ((i tinteger_32B))
    (and
      (<= (- 2147483648) (tinteger_32Bqtint i))
      (<= (tinteger_32Bqtint i) 2147483647))))

;; "in_range"
(define-fun in_range ((x Int)) Bool
  (and (<= (- 2147483648) x) (<= x 2147483647)))

;; "to_rep"
(define-fun to_rep ((x tinteger_32B)) Int
  (tinteger_32Bqtint x))

;; "of_rep"
(declare-fun of_rep (Int) tinteger_32B)

;; "inversion_axiom"
(assert
  (forall ((x tinteger_32B))
    (! (= (of_rep (to_rep x)) x) :pattern ((to_rep x)) )))

;; "range_axiom"
(assert
  (forall ((x tinteger_32B))
    (! (in_range (to_rep x)) :pattern ((to_rep x)) )))

;; "coerce_axiom"
(assert
  (forall ((x Int))
    (! (=> (in_range x) (= (to_rep (of_rep x)) x)) :pattern ((to_rep
                                                               (of_rep x))) )))

;; "in_range"
(define-fun in_range1 ((x Int)) Bool
  (and (<= 0 x) (<= x 2147483647)))

(declare-sort byte 0)

;; "to_rep"
(declare-fun to_rep1 (byte) (_ BitVec 8))

;; "of_rep"
(declare-fun of_rep1 ((_ BitVec 8)) byte)

;; "inversion_axiom"
(assert
  (forall ((x byte)) (! (= (of_rep1 (to_rep1 x)) x) :pattern ((to_rep1 x)) )))

;; "range_axiom"
(assert true)

;; "coerce_axiom"
(assert
  (forall ((x (_ BitVec 8)))
    (! (= (to_rep1 (of_rep1 x)) x) :pattern ((to_rep1 (of_rep1 x))) )))

(declare-sort map1 0)

;; "has_bounds"
(declare-fun has_bounds (map1
  Int
  Int) Bool)

;; "get"
(declare-fun get (map1
  Int) byte)

(declare-datatypes ((t 0))
  (((tqtmk (rec__first tinteger_32B)(rec__last tinteger_32B)))))

;; "mk"
(declare-fun mk (Int
  Int) t)

;; "mk_def"
(assert
  (forall ((f Int) (l Int))
    (! (=>
         (in_range f)
         (=>
           (in_range l)
           (and
             (= (to_rep (rec__first (mk f l))) f)
             (= (to_rep (rec__last (mk f l))) l)))) :pattern ((mk f l)) )))

;; "dynamic_property"
(define-fun dynamic_property ((range_first Int) (range_last Int) (low Int) (high Int)) Bool
  (and
    (in_range low)
    (and
      (in_range high)
      (=> (<= low high) (and (in_range1 low) (in_range1 high))))))

(declare-datatypes ((us_t 0))
  (((us_tqtmk (elts map1)(rt t)))))

;; "of_array"
(define-fun of_array ((a map1) (f Int) (l Int)) us_t
  (us_tqtmk a (mk f l)))

;; "well_formed"
(define-fun well_formed ((a us_t)) Bool
  (has_bounds
    (elts a)
    (to_rep (rec__first (rt a)))
    (to_rep (rec__last (rt a)))))

(declare-const c__first tinteger_32B)

(declare-const c__last tinteger_32B)

(declare-const n map1)

(declare-const two_power_size_minus_one1 Int)

;; "two_power_size_minus_one_val"
(assert (= two_power_size_minus_one1 (pow2 (- 32 1))))

(declare-const m map1)

;; "ada___sparknacl__stream__chacha20_ietf__m__aggregate_def"
(declare-fun ada___sparknacl__stream__chacha20_ietf__m__aggregate_def ((_ BitVec 8)) map1)

;; "def_axiom"
(assert
  (forall ((temp___201 (_ BitVec 8)))
    (let ((temp___202 (ada___sparknacl__stream__chacha20_ietf__m__aggregate_def
                        temp___201)))
      (and
        (has_bounds temp___202 0 63)
        (forall ((temp___203 Int))
          (! (=>
               (and (<= 0 temp___203) (<= temp___203 63))
               (= (to_rep1 (get temp___202 temp___203)) temp___201)) :pattern (
          (get
            temp___202
            temp___203)) ))))))

;; Goal "def'vc"
;; File "sparknacl-stream.ads", line 73, characters 0-0
(assert
  (not
  (forall ((c map1))
    (=>
      (and
        (dynamic_property 0 2147483647 (to_rep c__first) (to_rep c__last))
        (well_formed (of_array c (to_rep c__first) (to_rep c__last))))
      (=>
        (has_bounds n 0 11)
        (=>
          (and (= (to_rep c__first) 0) (< (to_rep c__last) 2147483647))
          (forall ((temp___1388 map1))
            (=>
              (and
                (and
                  (has_bounds temp___1388 0 63)
                  (forall ((temp___204 Int))
                    (! (=>
                         (and (<= 0 temp___204) (<= temp___204 63))
                         (= (to_rep1 (get temp___1388 temp___204)) #x00)) :pattern (
                    (get
                      temp___1388
                      temp___204)) )))
                (= temp___1388 (ada___sparknacl__stream__chacha20_ietf__m__aggregate_def
                                 #x00)))
              (=>
                (= temp___1388 m)
                (=>
                  (has_bounds m 0 63)
                  (forall ((o Int))
                    (=>
                      (= (to_rep c__last) o)
                      (forall ((o1 Int))
                        (=>
                          (= (to_rep c__first) o1)
                          (forall ((o2 tinteger_32B))
                            (=>
                              (= (to_rep o2) o)
                              (forall ((o3 tinteger_32B))
                                (=> (= (to_rep o3) o1) (= (to_rep o3) 0)))))))))))))))))))

(check-sat)
